(set-logic BV)
(set-info :status unknown)
(assert
 (forall ((ez_15 (_ BitVec 1)) (ez_16 (_ BitVec 1)) (ez_11 (_ BitVec 1)) (ez_12 (_ BitVec 1)) (ez_17 (_ BitVec 1)) (ez_18 (_ BitVec 1)) (ez_13 (_ BitVec 1)) (ez_14 (_ BitVec 1)) (ez_19 (_ BitVec 1)) (ez_20 (_ BitVec 1)) (ez_21 (_ BitVec 1)) (ez_23 (_ BitVec 1)) (ez_24 (_ BitVec 1)) (ez_22 (_ BitVec 1)) (ez_29 (_ BitVec 1)) (ez_30 (_ BitVec 1)) (ez_25 (_ BitVec 1)) (ez_26 (_ BitVec 1)) (ez_31 (_ BitVec 1)) (ez_32 (_ BitVec 1)) (ez_27 (_ BitVec 1)) (ez_28 (_ BitVec 1)) (ez_33 (_ BitVec 1)) (ez_34 (_ BitVec 1)) (ez_35 (_ BitVec 1)) (ez_37 (_ BitVec 1)) (ez_38 (_ BitVec 1)) (ez_36 (_ BitVec 1)) (ez_43 (_ BitVec 1)) (ez_44 (_ BitVec 1)) (ez_39 (_ BitVec 1)) (ez_40 (_ BitVec 1)) (ez_45 (_ BitVec 1)) (ez_46 (_ BitVec 1)) (ez_41 (_ BitVec 1)) (ez_42 (_ BitVec 1)) (ez_47 (_ BitVec 1)) (ez_48 (_ BitVec 1)) (ez_49 (_ BitVec 1)) )(exists ((ezaux_1_49 (_ BitVec 6)) (czaux_1_49 (_ BitVec 6)) (s_1 (_ BitVec 1)) (s_2 (_ BitVec 1)) (s_3 (_ BitVec 1)) (s_4 (_ BitVec 1)) (s_5 (_ BitVec 1)) (s_6 (_ BitVec 1)) (s_7 (_ BitVec 1)) (s_8 (_ BitVec 1)) (s_9 (_ BitVec 1)) (s_10 (_ BitVec 1)) (s_11 (_ BitVec 1)) (s_12 (_ BitVec 1)) (s_13 (_ BitVec 1)) (s_14 (_ BitVec 1)) (s_15 (_ BitVec 1)) (s_16 (_ BitVec 1)) (s_17 (_ BitVec 1)) (s_18 (_ BitVec 1)) (s_19 (_ BitVec 1)) (s_20 (_ BitVec 1)) (s_21 (_ BitVec 1)) (s_22 (_ BitVec 1)) (s_23 (_ BitVec 1)) (s_24 (_ BitVec 1)) (cz_1 (_ BitVec 1)) (cz_2 (_ BitVec 1)) (cz_3 (_ BitVec 1)) (cz_4 (_ BitVec 1)) (cz_5 (_ BitVec 1)) (cz_6 (_ BitVec 1)) (cz_7 (_ BitVec 1)) (cz_9 (_ BitVec 1)) (cz_10 (_ BitVec 1)) (cz_8 (_ BitVec 1)) (cz_15 (_ BitVec 1)) (cz_16 (_ BitVec 1)) (cz_11 (_ BitVec 1)) (cz_12 (_ BitVec 1)) (cz_17 (_ BitVec 1)) (cz_18 (_ BitVec 1)) (cz_13 (_ BitVec 1)) (cz_14 (_ BitVec 1)) (cz_19 (_ BitVec 1)) (cz_20 (_ BitVec 1)) (cz_21 (_ BitVec 1)) (cz_23 (_ BitVec 1)) (cz_24 (_ BitVec 1)) (cz_22 (_ BitVec 1)) (cz_29 (_ BitVec 1)) (cz_30 (_ BitVec 1)) (cz_25 (_ BitVec 1)) (cz_26 (_ BitVec 1)) (cz_31 (_ BitVec 1)) (cz_32 (_ BitVec 1)) (cz_27 (_ BitVec 1)) (cz_28 (_ BitVec 1)) (cz_33 (_ BitVec 1)) (cz_34 (_ BitVec 1)) (cz_35 (_ BitVec 1)) (cz_37 (_ BitVec 1)) (cz_38 (_ BitVec 1)) (cz_36 (_ BitVec 1)) (cz_43 (_ BitVec 1)) (cz_44 (_ BitVec 1)) (cz_39 (_ BitVec 1)) (cz_40 (_ BitVec 1)) (cz_45 (_ BitVec 1)) (cz_46 (_ BitVec 1)) (cz_41 (_ BitVec 1)) (cz_42 (_ BitVec 1)) (cz_47 (_ BitVec 1)) (cz_48 (_ BitVec 1)) (cz_49 (_ BitVec 1)) )(let (($x561 (bvule czaux_1_49 (ite (bvule ezaux_1_49 ((_ zero_extend 4) (_ bv3 2))) ezaux_1_49 ((_ zero_extend 4) (_ bv3 2))))))
 (let (($x563 (= s_24 (bvadd cz_42 cz_49))))
 (let (($x566 (= s_23 (bvadd cz_29 cz_36))))
 (let (($x572 (and (= s_22 (bvadd cz_40 (bvadd cz_41 (bvadd cz_47 cz_48)))) (and $x566 (and $x563 $x561)))))
 (let (($x582 (and (= s_20 (bvadd cz_38 (bvadd cz_39 (bvadd cz_45 cz_46)))) (and (= s_21 (bvadd cz_34 (bvadd cz_35 (bvadd cz_41 cz_42)))) $x572))))
 (let (($x592 (and (= s_18 (bvadd cz_36 (bvadd cz_37 (bvadd cz_43 cz_44)))) (and (= s_19 (bvadd cz_32 (bvadd cz_33 (bvadd cz_39 cz_40)))) $x582))))
 (let (($x599 (= s_16 (bvadd cz_28 cz_35))))
 (let (($x600 (and $x599 (and (= s_17 (bvadd cz_30 (bvadd cz_31 (bvadd cz_37 cz_38)))) $x592))))
 (let (($x602 (= s_15 (bvadd cz_15 cz_22))))
 (let (($x608 (and (= s_14 (bvadd cz_26 (bvadd cz_27 (bvadd cz_33 cz_34)))) (and $x602 $x600))))
 (let (($x618 (and (= s_12 (bvadd cz_24 (bvadd cz_25 (bvadd cz_31 cz_32)))) (and (= s_13 (bvadd cz_20 (bvadd cz_21 (bvadd cz_27 cz_28)))) $x608))))
 (let (($x628 (and (= s_10 (bvadd cz_22 (bvadd cz_23 (bvadd cz_29 cz_30)))) (and (= s_11 (bvadd cz_18 (bvadd cz_19 (bvadd cz_25 cz_26)))) $x618))))
 (let (($x635 (= s_8 (bvadd cz_14 cz_21))))
 (let (($x636 (and $x635 (and (= s_9 (bvadd cz_16 (bvadd cz_17 (bvadd cz_23 cz_24)))) $x628))))
 (let (($x638 (= s_7 (bvadd cz_1 cz_8))))
 (let (($x644 (and (= s_6 (bvadd cz_12 (bvadd cz_13 (bvadd cz_19 cz_20)))) (and $x638 $x636))))
 (let (($x654 (and (= s_4 (bvadd cz_10 (bvadd cz_11 (bvadd cz_17 cz_18)))) (and (= s_5 (bvadd cz_6 (bvadd cz_7 (bvadd cz_13 cz_14)))) $x644))))
 (let (($x664 (and (= s_2 (bvadd cz_8 (bvadd cz_9 (bvadd cz_15 cz_16)))) (and (= s_3 (bvadd cz_4 (bvadd cz_5 (bvadd cz_11 cz_12)))) $x654))))
 (let (($x671 (= cz_1 (bvadd (_ bv1 1) cz_2 cz_3 cz_4 cz_5 cz_6 cz_7))))
 (let (($x840 (= s_24 (bvadd ez_42 ez_49))))
 (let (($x842 (= s_23 (bvadd ez_29 ez_36))))
 (let (($x844 (= s_22 (bvadd ez_40 ez_41 ez_47 ez_48))))
 (let (($x846 (= s_21 (bvadd ez_34 ez_35 ez_41 ez_42))))
 (let (($x848 (= s_20 (bvadd ez_38 ez_39 ez_45 ez_46))))
 (let (($x850 (= s_19 (bvadd ez_32 ez_33 ez_39 ez_40))))
 (let (($x854 (= s_17 (bvadd ez_30 ez_31 ez_37 ez_38))))
 (let (($x856 (= s_16 (bvadd ez_28 ez_35))))
 (let (($x858 (= s_15 (bvadd ez_15 ez_22))))
 (let (($x860 (= s_14 (bvadd ez_26 ez_27 ez_33 ez_34))))
 (let (($x862 (= s_13 (bvadd ez_20 ez_21 ez_27 ez_28))))
 (let (($x864 (= s_12 (bvadd ez_24 ez_25 ez_31 ez_32))))
 (let (($x866 (= s_11 (bvadd ez_18 ez_19 ez_25 ez_26))))
 (let (($x870 (= s_9 (bvadd ez_16 ez_17 ez_23 ez_24))))
 (let (($x872 (= s_8 (bvadd ez_14 ez_21))))
 (let (($x689 (= s_7 (_ bv1 1))))
 (let (($x874 (= s_6 (bvadd ez_12 ez_13 ez_19 ez_20))))
 (let (($x876 (= s_5 (bvadd ez_13 ez_14))))
 (let (($x878 (= s_4 (bvadd ez_11 ez_17 ez_18))))
 (let (($x880 (= s_3 (bvadd ez_11 ez_12))))
 (let (($x882 (= s_2 (bvadd ez_15 ez_16))))
 (let (($x695 (= s_1 (_ bv0 1))))
 (let (($x883 (and $x695 $x882 $x880 $x878 $x876 $x874 $x689 $x872 $x870 (= s_10 (bvadd ez_22 ez_23 ez_29 ez_30)) $x866 $x864 $x862 $x860 $x858 $x856 $x854 (= s_18 (bvadd ez_36 ez_37 ez_43 ez_44)) $x850 $x848 $x846 $x844 $x842 $x840 $x671)))
 (let (($x884 (and $x883 (and (= s_1 (bvadd cz_2 (bvadd cz_3 (bvadd cz_9 cz_10)))) $x664))))
 (let ((?x11 ((_ zero_extend 5) (_ bv0 1))))
 (let ((?x23 (bvadd (bvadd (bvadd (bvadd (bvadd (_ bv0 6) ((_ zero_extend 5) (_ bv1 1))) ?x11) ?x11) ?x11) ?x11)))
 (let ((?x925 (bvadd (bvadd (bvadd (bvadd (bvadd (bvadd ?x23 ?x11) ?x11) ?x11) ?x11) ?x11) ((_ zero_extend 5) ez_11))))
 (let ((?x928 (bvadd (bvadd (bvadd ?x925 ((_ zero_extend 5) ez_12)) ((_ zero_extend 5) ez_13)) ((_ zero_extend 5) ez_14))))
 (let ((?x931 (bvadd (bvadd (bvadd ?x928 ((_ zero_extend 5) ez_15)) ((_ zero_extend 5) ez_16)) ((_ zero_extend 5) ez_17))))
 (let ((?x934 (bvadd (bvadd (bvadd ?x931 ((_ zero_extend 5) ez_18)) ((_ zero_extend 5) ez_19)) ((_ zero_extend 5) ez_20))))
 (let ((?x937 (bvadd (bvadd (bvadd ?x934 ((_ zero_extend 5) ez_21)) ((_ zero_extend 5) ez_22)) ((_ zero_extend 5) ez_23))))
 (let ((?x940 (bvadd (bvadd (bvadd ?x937 ((_ zero_extend 5) ez_24)) ((_ zero_extend 5) ez_25)) ((_ zero_extend 5) ez_26))))
 (let ((?x943 (bvadd (bvadd (bvadd ?x940 ((_ zero_extend 5) ez_27)) ((_ zero_extend 5) ez_28)) ((_ zero_extend 5) ez_29))))
 (let ((?x946 (bvadd (bvadd (bvadd ?x943 ((_ zero_extend 5) ez_30)) ((_ zero_extend 5) ez_31)) ((_ zero_extend 5) ez_32))))
 (let ((?x949 (bvadd (bvadd (bvadd ?x946 ((_ zero_extend 5) ez_33)) ((_ zero_extend 5) ez_34)) ((_ zero_extend 5) ez_35))))
 (let ((?x952 (bvadd (bvadd (bvadd ?x949 ((_ zero_extend 5) ez_36)) ((_ zero_extend 5) ez_37)) ((_ zero_extend 5) ez_38))))
 (let ((?x955 (bvadd (bvadd (bvadd ?x952 ((_ zero_extend 5) ez_39)) ((_ zero_extend 5) ez_40)) ((_ zero_extend 5) ez_41))))
 (let ((?x958 (bvadd (bvadd (bvadd ?x955 ((_ zero_extend 5) ez_42)) ((_ zero_extend 5) ez_43)) ((_ zero_extend 5) ez_44))))
 (let ((?x961 (bvadd (bvadd (bvadd ?x958 ((_ zero_extend 5) ez_45)) ((_ zero_extend 5) ez_46)) ((_ zero_extend 5) ez_47))))
 (let ((?x963 (bvadd (bvadd ?x961 ((_ zero_extend 5) ez_48)) ((_ zero_extend 5) ez_49))))
 (let (($x964 (= ?x963 ezaux_1_49)))
 (let ((?x752 (bvadd (bvadd (bvadd (_ bv0 6) ((_ zero_extend 5) cz_1)) ((_ zero_extend 5) cz_2)) ((_ zero_extend 5) cz_3))))
 (let ((?x755 (bvadd (bvadd (bvadd ?x752 ((_ zero_extend 5) cz_4)) ((_ zero_extend 5) cz_5)) ((_ zero_extend 5) cz_6))))
 (let ((?x758 (bvadd (bvadd (bvadd ?x755 ((_ zero_extend 5) cz_7)) ((_ zero_extend 5) cz_8)) ((_ zero_extend 5) cz_9))))
 (let ((?x761 (bvadd (bvadd (bvadd ?x758 ((_ zero_extend 5) cz_10)) ((_ zero_extend 5) cz_11)) ((_ zero_extend 5) cz_12))))
 (let ((?x764 (bvadd (bvadd (bvadd ?x761 ((_ zero_extend 5) cz_13)) ((_ zero_extend 5) cz_14)) ((_ zero_extend 5) cz_15))))
 (let ((?x767 (bvadd (bvadd (bvadd ?x764 ((_ zero_extend 5) cz_16)) ((_ zero_extend 5) cz_17)) ((_ zero_extend 5) cz_18))))
 (let ((?x770 (bvadd (bvadd (bvadd ?x767 ((_ zero_extend 5) cz_19)) ((_ zero_extend 5) cz_20)) ((_ zero_extend 5) cz_21))))
 (let ((?x773 (bvadd (bvadd (bvadd ?x770 ((_ zero_extend 5) cz_22)) ((_ zero_extend 5) cz_23)) ((_ zero_extend 5) cz_24))))
 (let ((?x776 (bvadd (bvadd (bvadd ?x773 ((_ zero_extend 5) cz_25)) ((_ zero_extend 5) cz_26)) ((_ zero_extend 5) cz_27))))
 (let ((?x779 (bvadd (bvadd (bvadd ?x776 ((_ zero_extend 5) cz_28)) ((_ zero_extend 5) cz_29)) ((_ zero_extend 5) cz_30))))
 (let ((?x782 (bvadd (bvadd (bvadd ?x779 ((_ zero_extend 5) cz_31)) ((_ zero_extend 5) cz_32)) ((_ zero_extend 5) cz_33))))
 (let ((?x785 (bvadd (bvadd (bvadd ?x782 ((_ zero_extend 5) cz_34)) ((_ zero_extend 5) cz_35)) ((_ zero_extend 5) cz_36))))
 (let ((?x788 (bvadd (bvadd (bvadd ?x785 ((_ zero_extend 5) cz_37)) ((_ zero_extend 5) cz_38)) ((_ zero_extend 5) cz_39))))
 (let ((?x791 (bvadd (bvadd (bvadd ?x788 ((_ zero_extend 5) cz_40)) ((_ zero_extend 5) cz_41)) ((_ zero_extend 5) cz_42))))
 (let ((?x794 (bvadd (bvadd (bvadd ?x791 ((_ zero_extend 5) cz_43)) ((_ zero_extend 5) cz_44)) ((_ zero_extend 5) cz_45))))
 (let ((?x797 (bvadd (bvadd (bvadd ?x794 ((_ zero_extend 5) cz_46)) ((_ zero_extend 5) cz_47)) ((_ zero_extend 5) cz_48))))
 (let (($x966 (and (and $x964 (= (bvadd ?x797 ((_ zero_extend 5) cz_49)) czaux_1_49) $x964) (or (not (bvule ezaux_1_49 ((_ zero_extend 4) (_ bv3 2)))) $x884))))
 (or (not (bvule ?x963 ((_ zero_extend 3) (_ bv6 3)))) $x966)))))))))))))))))))))))))))))))))))))))))))))))))))))))))))))))))))))))))))))))
 )
 )
(check-sat)